row=6;
column=6;
left=[0, 0, 15, 7, 11, 0];
right=[11, 6, 0, 14, 8, 15];
top=[0, 12, 0, 10, 0, 0];
bottom=[0, 13, 19, 0, 0, 10];
Board=[|0,0,0,0,0,0|0,0,0,0,0,0|0,0,0,0,0,0|0,0,0,0,0,0|0,0,0,0,0,0|0,0,0,0,0,0|]